networks/zoo_70_238/zoo_70_238.txt
Number of groups: 46
Flow 2: {1 28} {28 7} {7 18} {18 53} 
Flow 8: {2 28} {28 63} 
Flow 11: {3 30} {30 26} {26 27} {27 7} {7 42} 
Flow 19: {4 28} 
Flow 27: {6 28} {28 29} {29 64} 
Flow 36: {8 28} {28 6} {6 41} 
Flow 47: {9 5} {5 28} 
Flow 52: {10 28} 
Flow 56: {11 29} {29 30} {30 31} {31 66} 
Flow 58: {12 29} 
Flow 59: {13 29} 
Flow 66: {14 29} {29 18} {18 7} {7 27} {27 62} 
Flow 72: {15 29} 
Flow 75: {16 29} {29 28} 
Flow 82: {19 29} 
Flow 86: {20 28} 
Flow 87: {21 28} {28 1} {1 36} 
Flow 96: {22 29} 
Flow 98: {30 3} {3 38} 
Flow 99: {28 5} {5 40} 
Flow 102: {23 29} {29 11} {11 46} 
Flow 113: {25 29} {29 17} {17 52} 
Flow 130: {7 28} {28 8} {8 43} 
Flow 132: {29 13} {13 48} 
Flow 133: {29 14} {14 49} 
Flow 134: {29 15} {15 50} 
Flow 137: {29 19} {19 54} 
Flow 138: {28 20} {20 55} 
Flow 139: {28 21} {21 56} 
Flow 140: {29 23} {23 58} 
Flow 141: {29 24} {24 59} 
Flow 142: {18 29} {29 25} {25 60} 
Flow 148: {30 34} {34 69} 
Flow 149: {26 30} {30 35} {35 70} 
Flow 151: {28 2} {2 37} 
Flow 153: {28 4} {4 39} 
Flow 158: {5 9} {9 44} 
Flow 172: {27 26} {26 61} 
Flow 177: {27 31} {31 32} {32 67} 
Flow 178: {30 33} {33 68} 
Flow 199: {29 22} {22 57} 
Flow 216: {31 27} 
Flow 221: {32 31} {31 30} {30 65} 
Flow 224: {33 30} 
Flow 228: {34 30} {30 29} 
Flow 238: {35 30} 
Time taken running everything: 2 seconds
