networks/zoo_70_238/zoo_70_238.sol
<?xml version = "1.0" encoding="UTF-8" standalone="yes"?>
<CPLEXSolution version="1.2">
 <header
   problemName="networks/zoo_70_238/zoo_70_238.lp"
   solutionName="incumbent"
   solutionIndex="-1"
   objectiveValue="46"
   solutionTypeValue="3"
   solutionTypeString="primal"
   solutionStatusValue="101"
   solutionStatusString="integer optimal solution"
   solutionMethodString="mip"
   primalFeasible="1"
   dualFeasible="1"
   MIPNodes="0"
   MIPIterations="2949"
   writeLevel="3"/>
 <quality
   epInt="1.0000000000000001e-05"
   epRHS="9.9999999999999995e-07"
   maxIntInfeas="0"
   maxPrimalInfeas="2.000000165480742e-09"
   maxX="4"
   maxSlack="10"/>
 <variables>
  <variable name="Y(2,18)" index="84" value="1"/>
  <variable name="Y(8,28)" index="496" value="1"/>
  <variable name="Y(11,7)" index="676" value="1"/>
  <variable name="Y(19,4)" index="1209" value="1"/>
  <variable name="Y(27,29)" index="1770" value="1"/>
  <variable name="Y(36,6)" index="2350" value="1"/>
  <variable name="Y(47,5)" index="3086" value="1"/>
  <variable name="Y(52,10)" index="3426" value="1"/>
  <variable name="Y(56,31)" index="3715" value="1"/>
  <variable name="Y(58,12)" index="3830" value="1"/>
  <variable name="Y(59,13)" index="3898" value="1"/>
  <variable name="Y(66,27)" index="4381" value="1"/>
  <variable name="Y(72,15)" index="4771" value="1"/>
  <variable name="Y(75,29)" index="4986" value="1"/>
  <variable name="Y(82,19)" index="5445" value="1"/>
  <variable name="Y(86,20)" index="5714" value="1"/>
  <variable name="Y(87,1)" index="5762" value="1"/>
  <variable name="Y(96,22)" index="6386" value="1"/>
  <variable name="Y(98,3)" index="6501" value="1"/>
  <variable name="Y(99,5)" index="6570" value="1"/>
  <variable name="Y(102,11)" index="6777" value="1"/>
  <variable name="Y(113,17)" index="7520" value="1"/>
  <variable name="Y(130,8)" index="8650" value="1"/>
  <variable name="Y(132,13)" index="8789" value="1"/>
  <variable name="Y(133,14)" index="8857" value="1"/>
  <variable name="Y(134,15)" index="8925" value="1"/>
  <variable name="Y(137,19)" index="9130" value="1"/>
  <variable name="Y(138,20)" index="9198" value="1"/>
  <variable name="Y(139,21)" index="9266" value="1"/>
  <variable name="Y(140,23)" index="9335" value="1"/>
  <variable name="Y(141,24)" index="9403" value="1"/>
  <variable name="Y(142,25)" index="9471" value="1"/>
  <variable name="Y(148,34)" index="9882" value="1"/>
  <variable name="Y(149,35)" index="9950" value="1"/>
  <variable name="Y(151,2)" index="10051" value="1"/>
  <variable name="Y(153,4)" index="10187" value="1"/>
  <variable name="Y(158,9)" index="10527" value="1"/>
  <variable name="Y(172,26)" index="11482" value="1"/>
  <variable name="Y(177,32)" index="11823" value="1"/>
  <variable name="Y(178,33)" index="11891" value="1"/>
  <variable name="Y(199,22)" index="13287" value="1"/>
  <variable name="Y(216,31)" index="14435" value="1"/>
  <variable name="Y(221,30)" index="14769" value="1"/>
  <variable name="Y(224,33)" index="14973" value="1"/>
  <variable name="Y(228,30)" index="15238" value="1"/>
  <variable name="Y(238,35)" index="15913" value="1"/>
  <variable name="X(1,28,2)" index="15947" value="1"/>
  <variable name="X(1,36,87)" index="16270" value="1"/>
  <variable name="X(2,28,8)" index="16429" value="1"/>
  <variable name="X(2,37,151)" index="16810" value="1"/>
  <variable name="X(3,30,11)" index="16908" value="1"/>
  <variable name="X(3,38,98)" index="17233" value="1"/>
  <variable name="X(4,28,19)" index="17392" value="1"/>
  <variable name="X(4,39,153)" index="17764" value="1"/>
  <variable name="X(5,9,158)" index="18007" value="1"/>
  <variable name="X(5,28,47)" index="18134" value="1"/>
  <variable name="X(5,40,99)" index="18424" value="1"/>
  <variable name="X(6,28,27)" index="18590" value="1"/>
  <variable name="X(6,41,36)" index="18837" value="1"/>
  <variable name="X(7,18,2)" index="19041" value="1"/>
  <variable name="X(7,27,66)" index="19343" value="1"/>
  <variable name="X(7,28,130)" index="19645" value="1"/>
  <variable name="X(7,42,11)" index="19764" value="1"/>
  <variable name="X(8,28,36)" index="20027" value="1"/>
  <variable name="X(8,43,130)" index="20359" value="1"/>
  <variable name="X(9,5,47)" index="20514" value="1"/>
  <variable name="X(9,44,158)" index="20863" value="1"/>
  <variable name="X(10,28,52)" index="20995" value="1"/>
  <variable name="X(11,29,56)" index="21237" value="1"/>
  <variable name="X(11,46,102)" index="21521" value="1"/>
  <variable name="X(12,29,58)" index="21715" value="1"/>
  <variable name="X(13,29,59)" index="21954" value="1"/>
  <variable name="X(13,48,132)" index="22265" value="1"/>
  <variable name="X(14,29,66)" index="22437" value="1"/>
  <variable name="X(14,49,133)" index="22742" value="1"/>
  <variable name="X(15,29,72)" index="22919" value="1"/>
  <variable name="X(15,50,134)" index="23219" value="1"/>
  <variable name="X(16,29,75)" index="23398" value="1"/>
  <variable name="X(17,52,113)" index="23674" value="1"/>
  <variable name="X(18,7,66)" index="23865" value="1"/>
  <variable name="X(18,29,142)" index="24179" value="1"/>
  <variable name="X(18,53,2)" index="24277" value="1"/>
  <variable name="X(19,29,82)" index="24595" value="1"/>
  <variable name="X(19,54,137)" index="24888" value="1"/>
  <variable name="X(20,28,86)" index="25075" value="1"/>
  <variable name="X(20,55,138)" index="25365" value="1"/>
  <variable name="X(21,28,87)" index="25552" value="1"/>
  <variable name="X(21,56,139)" index="25842" value="1"/>
  <variable name="X(22,29,96)" index="26037" value="1"/>
  <variable name="X(22,57,199)" index="26378" value="1"/>
  <variable name="X(23,29,102)" index="26519" value="1"/>
  <variable name="X(23,58,140)" index="26795" value="1"/>
  <variable name="X(24,59,141)" index="27034" value="1"/>
  <variable name="X(25,29,113)" index="27244" value="1"/>
  <variable name="X(25,60,142)" index="27511" value="1"/>
  <variable name="X(26,27,11)" index="27618" value="1"/>
  <variable name="X(26,30,149)" index="27994" value="1"/>
  <variable name="X(26,61,172)" index="28255" value="1"/>
  <variable name="X(27,7,11)" index="28332" value="1"/>
  <variable name="X(27,26,172)" index="28731" value="1"/>
  <variable name="X(27,31,177)" index="28974" value="1"/>
  <variable name="X(27,62,66)" index="29101" value="1"/>
  <variable name="X(28,1,87)" index="29360" value="1"/>
  <variable name="X(28,2,151)" index="29662" value="1"/>
  <variable name="X(28,4,153)" index="29902" value="1"/>
  <variable name="X(28,5,99)" index="30086" value="1"/>
  <variable name="X(28,6,36)" index="30261" value="1"/>
  <variable name="X(28,7,2)" index="30465" value="1"/>
  <variable name="X(28,8,130)" index="30831" value="1"/>
  <variable name="X(28,20,138)" index="31077" value="1"/>
  <variable name="X(28,21,139)" index="31316" value="1"/>
  <variable name="X(28,29,27)" index="31442" value="1"/>
  <variable name="X(28,63,8)" index="31661" value="1"/>
  <variable name="X(29,11,102)" index="31993" value="1"/>
  <variable name="X(29,13,132)" index="32261" value="1"/>
  <variable name="X(29,14,133)" index="32500" value="1"/>
  <variable name="X(29,15,134)" index="32739" value="1"/>
  <variable name="X(29,17,113)" index="32956" value="1"/>
  <variable name="X(29,18,66)" index="33147" value="1"/>
  <variable name="X(29,19,137)" index="33456" value="1"/>
  <variable name="X(29,22,199)" index="33756" value="1"/>
  <variable name="X(29,23,140)" index="33935" value="1"/>
  <variable name="X(29,24,141)" index="34174" value="1"/>
  <variable name="X(29,25,142)" index="34413" value="1"/>
  <variable name="X(29,28,75)" index="34584" value="1"/>
  <variable name="X(29,30,56)" index="34803" value="1"/>
  <variable name="X(29,64,27)" index="35012" value="1"/>
  <variable name="X(30,3,98)" index="35321" value="1"/>
  <variable name="X(30,26,11)" index="35472" value="1"/>
  <variable name="X(30,29,228)" index="35927" value="1"/>
  <variable name="X(30,31,56)" index="35993" value="1"/>
  <variable name="X(30,33,178)" index="36353" value="1"/>
  <variable name="X(30,34,148)" index="36561" value="1"/>
  <variable name="X(30,35,149)" index="36800" value="1"/>
  <variable name="X(30,65,221)" index="37110" value="1"/>
  <variable name="X(31,27,216)" index="37343" value="1"/>
  <variable name="X(31,30,221)" index="37586" value="1"/>
  <variable name="X(31,32,177)" index="37780" value="1"/>
  <variable name="X(31,66,56)" index="37897" value="1"/>
  <variable name="X(32,31,221)" index="38300" value="1"/>
  <variable name="X(32,67,177)" index="38494" value="1"/>
  <variable name="X(33,30,224)" index="38779" value="1"/>
  <variable name="X(33,68,178)" index="38971" value="1"/>
  <variable name="X(34,30,228)" index="39259" value="1"/>
  <variable name="X(34,69,148)" index="39417" value="1"/>
  <variable name="X(35,30,238)" index="39745" value="1"/>
  <variable name="X(35,70,149)" index="39894" value="1"/>
  <variable name="C(2,28)" index="39988" value="1"/>
  <variable name="C(2,7)" index="39989" value="2"/>
  <variable name="C(2,18)" index="39990" value="3"/>
  <variable name="C(8,28)" index="40010" value="1"/>
  <variable name="C(11,30)" index="40021" value="1"/>
  <variable name="C(11,26)" index="40022" value="2"/>
  <variable name="C(11,27)" index="40023" value="3"/>
  <variable name="C(11,7)" index="40024" value="4"/>
  <variable name="C(27,28)" index="40076" value="1"/>
  <variable name="C(27,29)" index="40077" value="1.9999999979999998"/>
  <variable name="C(36,28)" index="40105" value="1"/>
  <variable name="C(36,6)" index="40106" value="2"/>
  <variable name="C(47,5)" index="40146" value="1"/>
  <variable name="C(56,29)" index="40181" value="1"/>
  <variable name="C(56,30)" index="40182" value="2"/>
  <variable name="C(56,31)" index="40183" value="3"/>
  <variable name="C(66,29)" index="40215" value="1"/>
  <variable name="C(66,18)" index="40216" value="2"/>
  <variable name="C(66,7)" index="40217" value="3"/>
  <variable name="C(66,27)" index="40218" value="4"/>
  <variable name="C(75,29)" index="40247" value="1"/>
  <variable name="C(87,28)" index="40286" value="1"/>
  <variable name="C(87,1)" index="40287" value="2"/>
  <variable name="C(98,3)" index="40326" value="1"/>
  <variable name="C(99,5)" index="40330" value="1"/>
  <variable name="C(102,29)" index="40340" value="1"/>
  <variable name="C(102,11)" index="40341" value="2"/>
  <variable name="C(113,29)" index="40378" value="1"/>
  <variable name="C(113,17)" index="40379" value="2"/>
  <variable name="C(130,28)" index="40434" value="1"/>
  <variable name="C(130,8)" index="40435" value="2"/>
  <variable name="C(132,13)" index="40445" value="1"/>
  <variable name="C(133,14)" index="40450" value="1"/>
  <variable name="C(134,15)" index="40455" value="1"/>
  <variable name="C(137,19)" index="40468" value="1"/>
  <variable name="C(138,20)" index="40472" value="1"/>
  <variable name="C(139,21)" index="40476" value="1"/>
  <variable name="C(140,23)" index="40481" value="1"/>
  <variable name="C(141,24)" index="40486" value="1"/>
  <variable name="C(142,29)" index="40490" value="1"/>
  <variable name="C(142,25)" index="40491" value="2"/>
  <variable name="C(148,34)" index="40509" value="1"/>
  <variable name="C(149,30)" index="40512" value="1"/>
  <variable name="C(149,35)" index="40513" value="2"/>
  <variable name="C(151,2)" index="40517" value="1"/>
  <variable name="C(153,4)" index="40523" value="1"/>
  <variable name="C(158,9)" index="40534" value="1"/>
  <variable name="C(172,26)" index="40575" value="1"/>
  <variable name="C(177,31)" index="40591" value="1"/>
  <variable name="C(177,32)" index="40592" value="2"/>
  <variable name="C(178,33)" index="40596" value="1"/>
  <variable name="C(199,22)" index="40654" value="1"/>
  <variable name="C(221,31)" index="40715" value="1"/>
  <variable name="C(221,30)" index="40716" value="2"/>
  <variable name="C(228,30)" index="40739" value="1"/>
 </variables>
</CPLEXSolution>
